Route #1: 67 34 52 27 13 54 19 8 46
Route #2: 57 15 5 37 20 70 60 71 69 36 47 48 29
Route #3: 4 45 21 61 28 74 30 75
Route #4: 68 2 62 22 64 42 41 43 1 73
Route #5: 23 56 49 24 18 50 25 55 31 10
Route #6: 38 65 66 11 59 14
Route #7: 7 35 53 58 72 39 9 32 40
Route #8: 17 51 6 33 63 16 3 44 12 26
Cost 781